(set-info :smt-lib-version 2.7)
(set-logic QF_SNIA)
(set-info :source  | 
Generated by: Johannes Bauer
Generated on: 2026-06-21
Generator: mgm A12 Test Data Generator
Application: ELSTER
Target solver: Z3, CVC5
Script is based on the ELSTER form: capital gains tax registration (A / KapEStInvStG)
Characteristic of the form: easy.
In this script, all terms of the form (* x1 x2 x3 ...) are in the form (* x1 c2 c3 ...),
all terms of the form (div x y) are in the form (div x c) and the symbol mod is exclusively used in the form (mod x c),
where x, y, and x1, x2, x3 ... are free constants and c, c2, c3 ... are terms in the form n or (-n) for some numeral n.
The script starts with the base constraints, which define a valid data set for the corresponding form. After the first (push 1), control constraints follow.
The goal of the control constraints in this script is to fill up a data set with values, after the characteristics of the high test coverage were placed.
number variables: 220, number constraints: 217
"https://www.elster.de/eportal/start?locale=en_US"
"https://www.mgm-tp.com/q12-tdg.html"
"https://a12.ai/public-sector"
|)
(set-info :license "https://creativecommons.org/licenses/by/4.0/")
(set-info :category "industrial")
(set-info :major-phase |variable declarations|)
(declare-fun S1-S () String)
(declare-fun S2-S () String)
(declare-fun B3-F () Bool)
(declare-fun S3-S () String)
(declare-fun B4-F () Bool)
(declare-fun B5-F () Bool)
(declare-fun B6-F () Bool)
(declare-fun B7-F () Bool)
(declare-fun I7-y () Int)
(declare-fun B8-F () Bool)
(declare-fun S8-S () String)
(declare-fun B9-F () Bool)
(declare-fun B10-F () Bool)
(declare-fun B11-F () Bool)
(declare-fun S11-S () String)
(declare-fun B12-F () Bool)
(declare-fun I12-y () Int)
(declare-fun I12-m () Int)
(declare-fun I12-d () Int)
(declare-fun B13-F () Bool)
(declare-fun I13-y () Int)
(declare-fun I13-m () Int)
(declare-fun I13-d () Int)
(declare-fun B14-F () Bool)
(declare-fun B15-F () Bool)
(declare-fun B16-F () Bool)
(declare-fun I16 () Int)
(declare-fun B17-F () Bool)
(declare-fun I17 () Int)
(declare-fun B18-F () Bool)
(declare-fun I18 () Int)
(declare-fun B19-F () Bool)
(declare-fun B20-F () Bool)
(declare-fun B21-F () Bool)
(declare-fun B22-F () Bool)
(declare-fun I22 () Int)
(declare-fun B23-F () Bool)
(declare-fun I23 () Int)
(declare-fun B24-F () Bool)
(declare-fun B25-F () Bool)
(declare-fun B26-F () Bool)
(declare-fun I26 () Int)
(declare-fun B27-F () Bool)
(declare-fun I27 () Int)
(declare-fun B28-F () Bool)
(declare-fun B29-F () Bool)
(declare-fun B30-F () Bool)
(declare-fun I30-s-y () Int)
(declare-fun I30-s-m () Int)
(declare-fun I30-s-d () Int)
(declare-fun I30-e-y () Int)
(declare-fun I30-e-m () Int)
(declare-fun I30-e-d () Int)
(declare-fun B31-F () Bool)
(declare-fun I31-y () Int)
(declare-fun I31-m () Int)
(declare-fun I31-d () Int)
(declare-fun B32-F () Bool)
(declare-fun I32-y () Int)
(declare-fun I32-m () Int)
(declare-fun I32-d () Int)
(declare-fun B33-F () Bool)
(declare-fun B34-F () Bool)
(declare-fun B35-F () Bool)
(declare-fun I35 () Int)
(declare-fun B36-F () Bool)
(declare-fun I36 () Int)
(declare-fun B37-F () Bool)
(declare-fun I37 () Int)
(declare-fun B38-F () Bool)
(declare-fun B39-F () Bool)
(declare-fun B40-F () Bool)
(declare-fun B41-F () Bool)
(declare-fun I41 () Int)
(declare-fun B42-F () Bool)
(declare-fun I42 () Int)
(declare-fun B43-F () Bool)
(declare-fun B44-F () Bool)
(declare-fun B45-F () Bool)
(declare-fun B46-F () Bool)
(declare-fun I46 () Int)
(declare-fun B47-F () Bool)
(declare-fun I47 () Int)
(declare-fun I48-s-y () Int)
(declare-fun I48-s-m () Int)
(declare-fun I48-s-d () Int)
(declare-fun I48-e-y () Int)
(declare-fun I48-e-m () Int)
(declare-fun I48-e-d () Int)
(declare-fun I49-y () Int)
(declare-fun I49-m () Int)
(declare-fun I49-d () Int)
(declare-fun I50-y () Int)
(declare-fun I50-m () Int)
(declare-fun I50-d () Int)
(declare-fun B51-F () Bool)
(declare-fun B52-F () Bool)
(declare-fun B53-F () Bool)
(declare-fun I53 () Int)
(declare-fun B54-F () Bool)
(declare-fun I54 () Int)
(declare-fun B55-F () Bool)
(declare-fun I55 () Int)
(declare-fun B56-F () Bool)
(declare-fun B57-F () Bool)
(declare-fun B58-F () Bool)
(declare-fun I58 () Int)
(declare-fun B59-F () Bool)
(declare-fun I59 () Int)
(declare-fun B60-F () Bool)
(declare-fun I60 () Int)
(declare-fun B61-F () Bool)
(declare-fun S61-S () String)
(declare-fun B62-F () Bool)
(declare-fun I62-y () Int)
(declare-fun I62-m () Int)
(declare-fun I62-d () Int)
(declare-fun B63-F () Bool)
(declare-fun I63-y () Int)
(declare-fun I63-m () Int)
(declare-fun I63-d () Int)
(declare-fun B64-F () Bool)
(declare-fun I64-y () Int)
(declare-fun I64-m () Int)
(declare-fun I64-d () Int)
(declare-fun B65-F () Bool)
(declare-fun B66-F () Bool)
(declare-fun B67-F () Bool)
(declare-fun B68-F () Bool)
(declare-fun I68 () Int)
(declare-fun B69-F () Bool)
(declare-fun I69 () Int)
(declare-fun B70-F () Bool)
(declare-fun B71-F () Bool)
(declare-fun I71-y () Int)
(declare-fun I71-m () Int)
(declare-fun I71-d () Int)
(declare-fun B72-F () Bool)
(declare-fun B73-F () Bool)
(declare-fun B74-F () Bool)
(declare-fun B75-F () Bool)
(declare-fun B76-F () Bool)
(declare-fun I76 () Int)
(declare-fun B77-F () Bool)
(declare-fun I77 () Int)
(declare-fun B78-F () Bool)
(declare-fun B79-F () Bool)
(declare-fun B80-F () Bool)
(declare-fun I80 () Int)
(declare-fun B81-F () Bool)
(declare-fun I81 () Int)
(declare-fun B82-F () Bool)
(declare-fun I82 () Int)
(declare-fun B83-F () Bool)
(declare-fun B84-F () Bool)
(declare-fun B85-F () Bool)
(declare-fun I85 () Int)
(declare-fun B86-F () Bool)
(declare-fun I86 () Int)
(declare-fun B87-F () Bool)
(declare-fun I87 () Int)
(declare-fun B88-F () Bool)
(declare-fun B89-F () Bool)
(declare-fun B90-F () Bool)
(declare-fun I90 () Int)
(declare-fun B91-F () Bool)
(declare-fun I92 () Int)
(declare-fun I93 () Int)
(declare-fun B94-F () Bool)
(declare-fun I94-y () Int)
(declare-fun I94-m () Int)
(declare-fun I94-d () Int)
(declare-fun B95-F () Bool)
(declare-fun B96-F () Bool)
(declare-fun I96 () Int)
(declare-fun B97-F () Bool)
(declare-fun I97 () Int)
(declare-fun B98-F () Bool)
(declare-fun I98 () Int)
(declare-fun B99-F () Bool)
(declare-fun I99 () Int)
(declare-fun B100-F () Bool)
(declare-fun B101-F () Bool)
(declare-fun I101 () Int)
(declare-fun B102-F () Bool)
(declare-fun I102 () Int)
(declare-fun B103-F () Bool)
(declare-fun I103 () Int)
(declare-fun B104-F () Bool)
(declare-fun I104 () Int)
(declare-fun B105-F () Bool)
(declare-fun I105 () Int)
(declare-fun B106-F () Bool)
(declare-fun I106 () Int)
(declare-fun B107-F () Bool)
(declare-fun B108-F () Bool)
(declare-fun I108 () Int)
(declare-fun B109-F () Bool)
(declare-fun I109 () Int)
(declare-fun B110-F () Bool)
(declare-fun I110 () Int)
(declare-fun B111-F () Bool)
(declare-fun I111 () Int)
(declare-fun B112-F () Bool)
(declare-fun I112 () Int)
(declare-fun B113-F () Bool)
(declare-fun I113 () Int)
(declare-fun B114-F () Bool)
(declare-fun I115 () Int)
(declare-fun B116-F () Bool)
(declare-fun B117-F () Bool)
(declare-fun B118-F () Bool)
(declare-fun B119-F () Bool)
(declare-fun B120-F () Bool)
(declare-fun B121-F () Bool)
(declare-fun B122-F () Bool)
(declare-fun B123-F () Bool)
(declare-fun B124-F () Bool)
(declare-fun B125-F () Bool)
(declare-fun B126-F () Bool)
(set-info :major-phase |base constraints|)
(set-info :base-constraint-type |constraints defining hierarchy (group is filled, if a child is filled)|)
(assert (not (or B94-F B95-F)))
(assert (= B95-F (or B96-F B97-F)))
(assert (= B116-F (or B117-F B118-F)))
(assert (= B10-F (or B11-F B12-F B13-F B14-F B19-F B24-F)))
(assert (= B14-F (or B15-F B16-F B17-F B18-F)))
(assert (= B19-F (or B20-F B21-F B22-F B23-F)))
(assert (= B24-F (or B25-F B26-F B27-F B28-F)))
(assert (or B61-F B62-F B63-F B64-F B65-F))
(assert (= B65-F (or B66-F B67-F B68-F B69-F)))
(assert (= B70-F (or B71-F B72-F B73-F B78-F B83-F B88-F)))
(assert (= B73-F (or B74-F B75-F B76-F B77-F)))
(assert (= B78-F (or B79-F B80-F B81-F B82-F)))
(assert (= B83-F (or B84-F B85-F B86-F B87-F)))
(assert (= B88-F (or B89-F B90-F B91-F)))
(assert (= B29-F (or B30-F B31-F B32-F B33-F B38-F B43-F)))
(assert (= B33-F (or B34-F B35-F B36-F B37-F)))
(assert (= B38-F (or B39-F B40-F B41-F B42-F)))
(assert (= B43-F (or B44-F B45-F B46-F B47-F)))
(assert (= B51-F (or B52-F B53-F B54-F B55-F)))
(assert (= B56-F (or B57-F B58-F B59-F B60-F)))
(assert (= B119-F (or B120-F B121-F)))
(assert (= B121-F (or B122-F B123-F B124-F B125-F)))
(assert (or B98-F B99-F B100-F B101-F B102-F B103-F B104-F B105-F B106-F B107-F B108-F B109-F B110-F B111-F B112-F B113-F))
(set-info :base-constraint-type |domainconstraints number-fields|)
(assert (ite B96-F (and (<= I96 999999999999) (>= I96 0)) (= I96 0)))
(assert (ite B97-F (and (<= I97 999999999999) (>= I97 0)) (= I97 0)))
(assert (and (<= I92 999999999999) (>= I92 (- 999999999999))))
(assert (and (<= I93 99999999999999) (>= I93 (- 99999999999999))))
(assert (ite B16-F (and (<= I16 999999999999) (>= I16 (- 999999999999))) (= I16 0)))
(assert (ite B17-F (and (<= I17 999999999999) (>= I17 (- 999999999999))) (= I17 0)))
(assert (ite B18-F (and (<= I18 99999999999999) (>= I18 (- 99999999999999))) (= I18 0)))
(assert (ite B21-F true false))
(assert (ite B22-F (and (<= I22 999999999999) (>= I22 (- 999999999999))) (= I22 0)))
(assert (ite B23-F (and (<= I23 99999999999999) (>= I23 (- 99999999999999))) (= I23 0)))
(assert (ite B26-F (and (<= I26 999999999999) (>= I26 (- 999999999999))) (= I26 0)))
(assert (ite B27-F (and (<= I27 999999999999) (>= I27 (- 999999999999))) (= I27 0)))
(assert (ite B28-F true false))
(assert (ite B67-F true false))
(assert (ite B68-F (and (<= I68 999999999999) (>= I68 (- 999999999999))) (= I68 0)))
(assert (ite B69-F (and (<= I69 99999999999999) (>= I69 (- 99999999999999))) (= I69 0)))
(assert (ite B75-F true false))
(assert (ite B76-F (and (<= I76 999999999999) (>= I76 0)) (= I76 0)))
(assert (ite B77-F (and (<= I77 99999999999999) (>= I77 0)) (= I77 0)))
(assert (ite B80-F (and (<= I80 999999999999) (>= I80 0)) (= I80 0)))
(assert (ite B81-F (and (<= I81 999999999999) (>= I81 0)) (= I81 0)))
(assert (ite B82-F (and (<= I82 99999999999999) (>= I82 0)) (= I82 0)))
(assert (ite B85-F (and (<= I85 999999999999) (>= I85 0)) (= I85 0)))
(assert (ite B86-F (and (<= I86 999999999999) (>= I86 0)) (= I86 0)))
(assert (ite B87-F (and (<= I87 99999999999999) (>= I87 0)) (= I87 0)))
(assert (ite B89-F true false))
(assert (ite B90-F (and (<= I90 999999999999) (>= I90 (- 999999999999))) (= I90 0)))
(assert (ite B91-F true false))
(assert (ite B35-F (and (<= I35 999999999999) (>= I35 (- 999999999999))) (= I35 0)))
(assert (ite B36-F (and (<= I36 999999999999) (>= I36 (- 999999999999))) (= I36 0)))
(assert (ite B37-F (and (<= I37 99999999999999) (>= I37 (- 99999999999999))) (= I37 0)))
(assert (ite B40-F true false))
(assert (ite B41-F (and (<= I41 999999999999) (>= I41 (- 999999999999))) (= I41 0)))
(assert (ite B42-F (and (<= I42 99999999999999) (>= I42 (- 99999999999999))) (= I42 0)))
(assert (ite B45-F true false))
(assert (ite B46-F (and (<= I46 999999999999) (>= I46 (- 999999999999))) (= I46 0)))
(assert (ite B47-F (and (<= I47 99999999999999) (>= I47 (- 99999999999999))) (= I47 0)))
(assert (ite B53-F (and (<= I53 999999999999) (>= I53 (- 999999999999))) (= I53 0)))
(assert (ite B54-F (and (<= I54 999999999999) (>= I54 (- 999999999999))) (= I54 0)))
(assert (ite B55-F (and (<= I55 99999999999999) (>= I55 (- 99999999999999))) (= I55 0)))
(assert (ite B58-F (and (<= I58 999999999999) (>= I58 (- 999999999999))) (= I58 0)))
(assert (ite B59-F (and (<= I59 999999999999) (>= I59 (- 999999999999))) (= I59 0)))
(assert (ite B60-F (and (<= I60 99999999999999) (>= I60 (- 99999999999999))) (= I60 0)))
(assert (ite B100-F true false))
(assert (ite B98-F (and (<= I98 99999999999999) (>= I98 (- 9999999999999))) (= I98 0)))
(assert (ite B99-F (and (<= I99 99999999999999) (>= I99 (- 9999999999999))) (= I99 0)))
(assert (ite B101-F (and (<= I101 99999999999999) (>= I101 (- 9999999999999))) (= I101 0)))
(assert (ite B103-F (and (<= I103 99999999999999) (>= I103 (- 9999999999999))) (= I103 0)))
(assert (ite B102-F (and (<= I102 99999999999999) (>= I102 (- 9999999999999))) (= I102 0)))
(assert (ite B104-F (and (<= I104 99999999999999) (>= I104 (- 9999999999999))) (= I104 0)))
(assert (ite B105-F (and (<= I105 99999999999999) (>= I105 (- 9999999999999))) (= I105 0)))
(assert (ite B106-F (and (<= I106 99999999999999) (>= I106 (- 9999999999999))) (= I106 0)))
(assert (ite B107-F true false))
(assert (ite B111-F (and (<= I111 99999999999999) (>= I111 (- 9999999999999))) (= I111 0)))
(assert (ite B108-F (and (<= I108 99999999999999) (>= I108 (- 9999999999999))) (= I108 0)))
(assert (ite B109-F (and (<= I109 99999999999999) (>= I109 (- 9999999999999))) (= I109 0)))
(assert (ite B110-F (and (<= I110 99999999999999) (>= I110 (- 9999999999999))) (= I110 0)))
(assert (ite B112-F (and (<= I112 99999999999999) (>= I112 (- 9999999999999))) (= I112 0)))
(assert (ite B113-F (and (<= I113 99999999999999) (>= I113 (- 9999999999999))) (= I113 0)))
(assert (ite B114-F (and (<= I115 99999999999999) (>= I115 (- 9999999999999))) (= I115 0)))
(set-info :base-constraint-type |domainconstraints date-fields|)
(assert (and (ite B94-F (and (> I94-y 1900) (< I94-y 2100)) (= I94-y 0)) (ite B94-F (and (> I94-m 0) (<= I94-m 12)) (= I94-m 0)) (ite B94-F (and (> I94-d 0) (<= I94-d (ite (or (= I94-m 0) (= I94-m 1) (= I94-m 3) (= I94-m 5) (= I94-m 7) (= I94-m 8) (= I94-m 10) (= I94-m 12)) 31 (ite (or (= I94-m 4) (= I94-m 6) (= I94-m 9) (= I94-m 11)) 30 (ite (= (mod I94-y 4) 0) 29 28))))) (= I94-d 0))))
(assert (ite B7-F (and (> I7-y 1900) (< I7-y 2100)) (= I7-y 0)))
(assert (and (ite B13-F (and (> I13-y 1900) (< I13-y 2100)) (= I13-y 0)) (ite B13-F (and (> I13-m 0) (<= I13-m 12)) (= I13-m 0)) (ite B13-F (and (> I13-d 0) (<= I13-d (ite (or (= I13-m 0) (= I13-m 1) (= I13-m 3) (= I13-m 5) (= I13-m 7) (= I13-m 8) (= I13-m 10) (= I13-m 12)) 31 (ite (or (= I13-m 4) (= I13-m 6) (= I13-m 9) (= I13-m 11)) 30 (ite (= (mod I13-y 4) 0) 29 28))))) (= I13-d 0))))
(assert (and (ite B12-F (and (> I12-y 1900) (< I12-y 2100)) (= I12-y 0)) (ite B12-F (and (> I12-m 0) (<= I12-m 12)) (= I12-m 0)) (ite B12-F (and (> I12-d 0) (<= I12-d (ite (or (= I12-m 0) (= I12-m 1) (= I12-m 3) (= I12-m 5) (= I12-m 7) (= I12-m 8) (= I12-m 10) (= I12-m 12)) 31 (ite (or (= I12-m 4) (= I12-m 6) (= I12-m 9) (= I12-m 11)) 30 (ite (= (mod I12-y 4) 0) 29 28))))) (= I12-d 0))))
(assert (and (ite B63-F (and (> I63-y 1900) (< I63-y 2100)) (= I63-y 0)) (ite B63-F (and (> I63-m 0) (<= I63-m 12)) (= I63-m 0)) (ite B63-F (and (> I63-d 0) (<= I63-d (ite (or (= I63-m 0) (= I63-m 1) (= I63-m 3) (= I63-m 5) (= I63-m 7) (= I63-m 8) (= I63-m 10) (= I63-m 12)) 31 (ite (or (= I63-m 4) (= I63-m 6) (= I63-m 9) (= I63-m 11)) 30 (ite (= (mod I63-y 4) 0) 29 28))))) (= I63-d 0))))
(assert (and (ite B62-F (and (> I62-y 1900) (< I62-y 2100)) (= I62-y 0)) (ite B62-F (and (> I62-m 0) (<= I62-m 12)) (= I62-m 0)) (ite B62-F (and (> I62-d 0) (<= I62-d (ite (or (= I62-m 0) (= I62-m 1) (= I62-m 3) (= I62-m 5) (= I62-m 7) (= I62-m 8) (= I62-m 10) (= I62-m 12)) 31 (ite (or (= I62-m 4) (= I62-m 6) (= I62-m 9) (= I62-m 11)) 30 (ite (= (mod I62-y 4) 0) 29 28))))) (= I62-d 0))))
(assert (and (ite B64-F (and (> I64-y 1900) (< I64-y 2100)) (= I64-y 0)) (ite B64-F (and (> I64-m 0) (<= I64-m 12)) (= I64-m 0)) (ite B64-F (and (> I64-d 0) (<= I64-d (ite (or (= I64-m 0) (= I64-m 1) (= I64-m 3) (= I64-m 5) (= I64-m 7) (= I64-m 8) (= I64-m 10) (= I64-m 12)) 31 (ite (or (= I64-m 4) (= I64-m 6) (= I64-m 9) (= I64-m 11)) 30 (ite (= (mod I64-y 4) 0) 29 28))))) (= I64-d 0))))
(assert (and (ite B71-F (and (> I71-y 1900) (< I71-y 2100)) (= I71-y 0)) (ite B71-F (and (> I71-m 0) (<= I71-m 12)) (= I71-m 0)) (ite B71-F (and (> I71-d 0) (<= I71-d (ite (or (= I71-m 0) (= I71-m 1) (= I71-m 3) (= I71-m 5) (= I71-m 7) (= I71-m 8) (= I71-m 10) (= I71-m 12)) 31 (ite (or (= I71-m 4) (= I71-m 6) (= I71-m 9) (= I71-m 11)) 30 (ite (= (mod I71-y 4) 0) 29 28))))) (= I71-d 0))))
(assert (and (ite B32-F (and (> I32-y 1900) (< I32-y 2100)) (= I32-y 0)) (ite B32-F (and (> I32-m 0) (<= I32-m 12)) (= I32-m 0)) (ite B32-F (and (> I32-d 0) (<= I32-d (ite (or (= I32-m 0) (= I32-m 1) (= I32-m 3) (= I32-m 5) (= I32-m 7) (= I32-m 8) (= I32-m 10) (= I32-m 12)) 31 (ite (or (= I32-m 4) (= I32-m 6) (= I32-m 9) (= I32-m 11)) 30 (ite (= (mod I32-y 4) 0) 29 28))))) (= I32-d 0))))
(assert (and (ite B31-F (and (> I31-y 1900) (< I31-y 2100)) (= I31-y 0)) (ite B31-F (and (> I31-m 0) (<= I31-m 12)) (= I31-m 0)) (ite B31-F (and (> I31-d 0) (<= I31-d (ite (or (= I31-m 0) (= I31-m 1) (= I31-m 3) (= I31-m 5) (= I31-m 7) (= I31-m 8) (= I31-m 10) (= I31-m 12)) 31 (ite (or (= I31-m 4) (= I31-m 6) (= I31-m 9) (= I31-m 11)) 30 (ite (= (mod I31-y 4) 0) 29 28))))) (= I31-d 0))))
(assert (or (< I30-s-y I30-e-y) (and (= I30-s-y I30-e-y) (< I30-s-m I30-e-m)) (and (= I30-s-y I30-e-y) (= I30-s-m I30-e-m) (<= I30-s-d I30-e-d))))
(assert (=> B30-F (and (>= I30-e-d 1) (<= I30-e-d (ite (or (= I30-e-m 0) (= I30-e-m 1) (= I30-e-m 3) (= I30-e-m 5) (= I30-e-m 7) (= I30-e-m 8) (= I30-e-m 10) (= I30-e-m 12)) 31 (ite (or (= I30-e-m 4) (= I30-e-m 6) (= I30-e-m 9) (= I30-e-m 11)) 30 (ite (= (mod I30-e-y 4) 0) 29 28)))))))
(assert (=> B30-F (and (>= I30-e-m 1) (<= I30-e-m 12))))
(assert (=> B30-F (and (>= I30-e-y 1901) (<= I30-e-y 2099))))
(assert (=> B30-F (and (>= I30-s-d 1) (<= I30-s-d (ite (or (= I30-s-m 0) (= I30-s-m 1) (= I30-s-m 3) (= I30-s-m 5) (= I30-s-m 7) (= I30-s-m 8) (= I30-s-m 10) (= I30-s-m 12)) 31 (ite (or (= I30-s-m 4) (= I30-s-m 6) (= I30-s-m 9) (= I30-s-m 11)) 30 (ite (= (mod I30-s-y 4) 0) 29 28)))))))
(assert (=> B30-F (and (>= I30-s-m 1) (<= I30-s-m 12))))
(assert (=> B30-F (and (>= I30-s-y 1901) (<= I30-s-y 2099))))
(assert (and (> I50-y 1900) (< I50-y 2100) (> I50-m 0) (<= I50-m 12) (> I50-d 0) (<= I50-d (ite (or (= I50-m 0) (= I50-m 1) (= I50-m 3) (= I50-m 5) (= I50-m 7) (= I50-m 8) (= I50-m 10) (= I50-m 12)) 31 (ite (or (= I50-m 4) (= I50-m 6) (= I50-m 9) (= I50-m 11)) 30 (ite (= (mod I50-y 4) 0) 29 28))))))
(assert (and (> I49-y 1900) (< I49-y 2100) (> I49-m 0) (<= I49-m 12) (> I49-d 0) (<= I49-d (ite (or (= I49-m 0) (= I49-m 1) (= I49-m 3) (= I49-m 5) (= I49-m 7) (= I49-m 8) (= I49-m 10) (= I49-m 12)) 31 (ite (or (= I49-m 4) (= I49-m 6) (= I49-m 9) (= I49-m 11)) 30 (ite (= (mod I49-y 4) 0) 29 28))))))
(assert (or (< I48-s-y I48-e-y) (and (= I48-s-y I48-e-y) (< I48-s-m I48-e-m)) (and (= I48-s-y I48-e-y) (= I48-s-m I48-e-m) (<= I48-s-d I48-e-d))))
(assert (and (>= I48-e-d 1) (<= I48-e-d (ite (or (= I48-e-m 0) (= I48-e-m 1) (= I48-e-m 3) (= I48-e-m 5) (= I48-e-m 7) (= I48-e-m 8) (= I48-e-m 10) (= I48-e-m 12)) 31 (ite (or (= I48-e-m 4) (= I48-e-m 6) (= I48-e-m 9) (= I48-e-m 11)) 30 (ite (= (mod I48-e-y 4) 0) 29 28))))))
(assert (and (>= I48-e-m 1) (<= I48-e-m 12)))
(assert (and (>= I48-e-y 1901) (<= I48-e-y 2099)))
(assert (and (>= I48-s-d 1) (<= I48-s-d (ite (or (= I48-s-m 0) (= I48-s-m 1) (= I48-s-m 3) (= I48-s-m 5) (= I48-s-m 7) (= I48-s-m 8) (= I48-s-m 10) (= I48-s-m 12)) 31 (ite (or (= I48-s-m 4) (= I48-s-m 6) (= I48-s-m 9) (= I48-s-m 11)) 30 (ite (= (mod I48-s-y 4) 0) 29 28))))))
(assert (and (>= I48-s-m 1) (<= I48-s-m 12)))
(assert (and (>= I48-s-y 1901) (<= I48-s-y 2099)))
(set-info :base-constraint-type |constraints for date-strategy|)
(assert (=> B11-F (and (> (str.to_int S11-S) 1900) (< (str.to_int S11-S) 2100))))
(assert (=> B11-F (and (> (str.to_int S11-S) 1900) (< (str.to_int S11-S) 2100))))
(set-info :base-constraint-type |domainconstraints string fields|)
(assert (ite B11-F (and (str.in_re S11-S (re.+ (re.range "0" "9"))) (>= (str.len S11-S) 4) (<= (str.len S11-S) 4)) (= S11-S "")))
(assert (ite B61-F (and (str.in_re S61-S (re.+ (re.range "0" "9"))) (>= (str.len S61-S) 4) (<= (str.len S61-S) 4)) (= S61-S "")))
(set-info :base-constraint-type |domainconstraints index-based string fields|)
(assert (or (= S2-S "0") (= S2-S "1")))
(assert (ite B8-F (or (= S8-S "11") (= S8-S "01") (= S8-S "12") (= S8-S "02") (= S8-S "03") (= S8-S "04") (= S8-S "05") (= S8-S "06") (= S8-S "07") (= S8-S "08") (= S8-S "09") (= S8-S "10")) (= S8-S "")))
(assert (or (= S1-S "2216060427666") (= S1-S "2815094023008") (= S1-S "1060048649864") (= S1-S "2348008413417") (= S1-S "2702024686052") (= S1-S "3207051220872") (= S1-S "1123012960769") (= S1-S "5103096558745") (= S1-S "2632041436639") (= S1-S "3103071321727") (= S1-S "3062087900803") (= S1-S "9170050074951") (= S1-S "4084068125545") (= S1-S "2460083378687") (= S1-S "2189063488000")))
(assert (ite B3-F (or (= S3-S "2216060427666") (= S3-S "2815094023008") (= S3-S "1060048649864") (= S3-S "2348008413417") (= S3-S "2702024686052") (= S3-S "3207051220872") (= S3-S "1123012960769") (= S3-S "5103096558745") (= S3-S "2632041436639") (= S3-S "3103071321727") (= S3-S "3062087900803") (= S3-S "9170050074951") (= S3-S "4084068125545") (= S3-S "2460083378687") (= S3-S "2189063488000")) (= S3-S "")))
(set-info :base-constraint-type |constraints, guarding filling of calculations|)
(assert B114-F)
(set-info :base-constraint-type |constraints from validation-rules|)
(assert (not (and B97-F B96-F (distinct I96 0) (distinct I97 (div (* I96 15) 100)))))
(assert (not (and B94-F (or (< I94-y 2025) (> I94-y 2025)))))
(assert (not (and (or B118-F B117-F) (not (and B118-F B117-F)))))
(assert (not (and (not B98-F) (not B99-F) (not B100-F) (not B101-F) (not B102-F) (not B103-F) (not B104-F) (not B105-F) (not B106-F) (not B107-F) (not B108-F) (not B109-F) (not B110-F) (not B111-F) (not B112-F) (not B113-F) (not B114-F))))
(assert (not (distinct I92 (+ I17 I22 I27 I36 I41 I46 I54 I59 I68 I76 I81 I86 I90 (- 1)))))
(assert (not (distinct I93 (+ I18 I23 I37 I42 I47 I55 I60 I69 I77 I82 I87 732275741266))))
(assert (not (and B7-F (or (< I7-y 2025) (> I7-y 2025)))))
(assert (not (and B13-F B12-F (or (> I13-y I12-y) (and (= I13-y I12-y) (> I13-m I12-m)) (and (= I13-y I12-y) (= I13-m I12-m) (> I13-d I12-d))))))
(assert (not (and B12-F (or (distinct I12-y (ite B7-F I7-y 0)) (distinct I12-m (str.to_int (ite B8-F S8-S "")))))))
(assert (not (and B11-F B13-F (>= (ite (and (>= (str.to_int S11-S) 1) (<= (str.to_int S11-S) 9999)) (+ (- I13-y (str.to_int S11-S)) (ite (or (< (str.to_int S11-S) I13-y) (and (= (str.to_int S11-S) I13-y) (< 5 I13-m)) (and (= (str.to_int S11-S) I13-y) (= 5 I13-m) (< 1 I13-d)) (and (= (str.to_int S11-S) I13-y) (= 5 I13-m) (= 1 I13-d))) (ite (or (< 5 I13-m) (and (= 5 I13-m) (<= 1 I13-d))) 0 (- 1)) (ite (or (> 5 I13-m) (and (= 5 I13-m) (>= 1 I13-d))) 0 1))) 0) 1))))
(assert (not (and B12-F (< I12-y (str.to_int (str.substr (ite B11-F S11-S "") 0 4))))))
(assert (not (and (not (and B13-F B12-F B11-F)) (or B14-F B19-F B24-F))))
(assert (not (and (or B11-F B12-F B13-F) (not B14-F) (not B19-F) (not B24-F))))
(assert (not (and B11-F (> (str.to_int (str.substr S11-S 0 4)) 2025))))
(assert (not (and (or B16-F B21-F B26-F) (or (and (distinct I16 0) (= I17 0)) (= I22 0) (and (distinct I26 0) (= I27 0))))))
(assert (not (and B17-F B18-F (> (ite (>= (- I18 (div (* I17 55) 10)) 0) (- I18 (div (* I17 55) 10)) (- (- I18 (div (* I17 55) 10)))) 100))))
(assert (not (and (or B15-F B16-F B17-F B18-F) (not (and B15-F B16-F B17-F B18-F)))))
(assert (not (and (or B17-F B22-F B27-F) (or (> (* I17 100) (+ (* I16 15) 100)) (> (* I22 100) (- 14999999999885)) (> (* I27 100) (+ (* I26 15) 100))))))
(assert (not (and B22-F B23-F (> (ite (>= (- I23 (div (* I22 55) 10)) 0) (- I23 (div (* I22 55) 10)) (- (- I23 (div (* I22 55) 10)))) 100))))
(assert (not (and (or B20-F B21-F B22-F B23-F) (not (and B20-F B21-F B22-F B23-F)))))
(assert (not (and B27-F B28-F (> (ite (>= (- 732282589214 (div (* I27 55) 10)) 0) (- 732282589214 (div (* I27 55) 10)) (- (- 732282589214 (div (* I27 55) 10)))) 100))))
(assert (not (and (or B25-F B26-F B27-F B28-F) (not (and B25-F B26-F B27-F B28-F)))))
(assert (not (and B63-F (not B64-F))))
(assert (not (and B63-F B62-F (or (< I63-y I62-y) (and (= I63-y I62-y) (< I63-m I62-m)) (and (= I63-y I62-y) (= I63-m I62-m) (< I63-d I62-d)) (and (= I63-y I62-y) (= I63-m I62-m) (= I63-d I62-d))))))
(assert (not (and B63-F (< I63-y (str.to_int (str.substr (ite B61-F S61-S "") 0 4))))))
(assert (not (and B63-F B64-F (or (< I63-y I64-y) (and (= I63-y I64-y) (< I63-m I64-m)) (and (= I63-y I64-y) (= I63-m I64-m) (< I63-d I64-d))))))
(assert (not (and B63-F (or (< I63-y (ite B7-F I7-y 0)) (and (= I63-y (ite B7-F I7-y 0)) (< I63-m (str.to_int (ite B8-F S8-S ""))))))))
(assert (not (and B64-F (< I64-y 2023))))
(assert (not (and (not (and B61-F B62-F)) B65-F)))
(assert (not (and B62-F (distinct I62-y (str.to_int (str.substr (ite B61-F S61-S "") 0 4))))))
(assert (not (and (or B61-F B62-F B64-F) (not B65-F))))
(assert (not (and B62-F (or (> I62-y (ite B7-F I7-y 0)) (and (= I62-y (ite B7-F I7-y 0)) (> I62-m (str.to_int (ite B8-F S8-S ""))))))))
(assert (not (and B61-F (> (str.to_int (str.substr S61-S 0 4)) 2025))))
(assert (not (and B61-F (or (and B62-F (or (< I62-y 2022) (and (= I62-y 2022) (< I62-m 10)) (and (= I62-y 2022) (= I62-m 10) (< I62-d 1))) (< (str.to_int (str.substr S61-S 0 4)) 2025)) (and B62-F (or (> I62-y 2022) (and (= I62-y 2022) (> I62-m 10)) (and (= I62-y 2022) (= I62-m 10) (> I62-d 1)) (and (= I62-y 2022) (= I62-m 10) (= I62-d 1))) (or (and (< (str.to_int (str.substr S61-S 0 4)) 2025) (= (str.to_int (str.substr S61-S 0 4)) 2024) (>= (str.to_int (ite B8-F S8-S "")) 5) (<= (str.to_int (ite B8-F S8-S "")) 12)) (and (< (str.to_int (str.substr S61-S 0 4)) 2025) (distinct (str.to_int (str.substr S61-S 0 4)) 2024))))))))
(assert (not (and B62-F (or (and (= I62-y (ite B7-F I7-y 0)) (< I62-m (- (str.to_int (ite B8-F S8-S "")) 4))) (and (distinct I62-y (ite B7-F I7-y 0)) (< I62-y (- (ite B7-F I7-y 0) 1))) (and (distinct I62-y (ite B7-F I7-y 0)) (= I62-y (- (ite B7-F I7-y 0) 1)) (> I62-m 8) (< I62-m (- (+ (str.to_int (ite B8-F S8-S "")) 12) 4))) (and (distinct I62-y (ite B7-F I7-y 0)) (= I62-y (- (ite B7-F I7-y 0) 1)) (<= I62-m 8))))))
(assert (not (and B67-F (= I68 0))))
(assert (not (and B68-F (> (* I68 100) (- 14999999999885)))))
(assert (not (and B68-F B69-F (> (ite (>= (- I69 (div (* I68 55) 10)) 0) (- I69 (div (* I68 55) 10)) (- (- I69 (div (* I68 55) 10)))) 100))))
(assert (not (and (or B66-F B67-F B68-F B69-F) (not (and B66-F B67-F B68-F B69-F)))))
(assert (not (and (not (and B72-F B71-F)) (or B73-F B78-F B83-F))))
(assert (not (and (or B72-F B71-F) (not B73-F) (not B78-F) (not B83-F))))
(assert (not (and (or B75-F B80-F B85-F) (or (= I76 0) (and (distinct I80 0) (= I81 0)) (and (distinct I85 0) (= I86 0))))))
(assert (not (and B76-F B77-F (> (ite (>= (- I77 (div (* I76 55) 10)) 0) (- I77 (div (* I76 55) 10)) (- (- I77 (div (* I76 55) 10)))) 100))))
(assert (not (and (or B74-F B75-F B76-F B77-F) (not (and B74-F B75-F B76-F B77-F)))))
(assert (not (and (or B76-F B81-F B86-F) (or (> (* I76 100) 1285) (> (* I81 100) (+ (* I80 15) 100)) (> (* I86 100) (+ (* I85 15) 100))))))
(assert (not (and B81-F B82-F (> (ite (>= (- I82 (div (* I81 55) 10)) 0) (- I82 (div (* I81 55) 10)) (- (- I82 (div (* I81 55) 10)))) 100))))
(assert (not (and (or B79-F B80-F B81-F B82-F) (not (and B79-F B80-F B81-F B82-F)))))
(assert (not (and B86-F B87-F (> (ite (>= (- I87 (div (* I86 55) 10)) 0) (- I87 (div (* I86 55) 10)) (- (- I87 (div (* I86 55) 10)))) 100))))
(assert (not (and (or B84-F B85-F B86-F B87-F) (not (and B84-F B85-F B86-F B87-F)))))
(assert (not (and B89-F (= I90 0))))
(assert (not (and B90-F B91-F (> (ite (>= (- (- 6847948) (div (* I90 55) 10)) 0) (- (- 6847948) (div (* I90 55) 10)) (- (- (- 6847948) (div (* I90 55) 10)))) 100))))
(assert (not (and B90-F (> (* I90 100) 85))))
(assert (not (and B71-F (or (> I71-y (ite B7-F I7-y 0)) (and (> I71-m (str.to_int (ite B8-F S8-S ""))) (= I71-y (ite B7-F I7-y 0)))))))
(assert (not (and B32-F B31-F (or (> I32-y I31-y) (and (= I32-y I31-y) (> I32-m I31-m)) (and (= I32-y I31-y) (= I32-m I31-m) (> I32-d I31-d))))))
(assert (not (and B31-F (or (distinct I31-y (ite B7-F I7-y 0)) (distinct I31-m (str.to_int (ite B8-F S8-S "")))))))
(assert (not (and B31-F (< I31-y 2025))))
(assert (not (and (not (and B32-F B31-F B30-F)) (or B33-F B38-F B43-F))))
(assert (not (and (or B32-F B31-F B30-F) (not B33-F) (not B38-F) (not B43-F))))
(assert (not (and (or B35-F B40-F B45-F) (or (and (distinct I35 0) (= I36 0)) (= I41 0) (= I46 0)))))
(assert (not (and B36-F B37-F (> (ite (>= (- I37 (div (* I36 55) 10)) 0) (- I37 (div (* I36 55) 10)) (- (- I37 (div (* I36 55) 10)))) 100))))
(assert (not (and (or B34-F B35-F B36-F B37-F) (not (and B34-F B35-F B36-F B37-F)))))
(assert (not (and (or B36-F B41-F B46-F) (or (> (* I36 100) (+ (* I35 15) 100)) (> (* I41 100) (- 1270939280855)) (> (* I46 100) 115)))))
(assert (not (and B41-F B42-F (> (ite (>= (- I42 (div (* I41 55) 10)) 0) (- I42 (div (* I41 55) 10)) (- (- I42 (div (* I41 55) 10)))) 100))))
(assert (not (and (or B39-F B40-F B41-F B42-F) (not (and B39-F B40-F B41-F B42-F)))))
(assert (not (and B46-F B47-F (> (ite (>= (- I47 (div (* I46 55) 10)) 0) (- I47 (div (* I46 55) 10)) (- (- I47 (div (* I46 55) 10)))) 100))))
(assert (not (and (or B44-F B45-F B46-F B47-F) (not (and B44-F B45-F B46-F B47-F)))))
(assert (not (and B30-F B31-F (or (> I30-e-y I31-y) (and (= I30-e-y I31-y) (> I30-e-m I31-m)) (and (= I30-e-y I31-y) (= I30-e-m I31-m) (> I30-e-d I31-d))))))
(assert (not (and B30-F (not B31-F))))
(assert (not (and B30-F (or (< I30-s-y (- I30-e-y 1)) (and (= I30-s-y (- I30-e-y 1)) (< I30-s-m I30-e-m)) (and (= I30-s-y (- I30-e-y 1)) (= I30-s-m I30-e-m) (< I30-s-d (+ I30-e-d 1)))))))
(assert (not (or (> I50-y I49-y) (and (= I50-y I49-y) (> I50-m I49-m)) (and (= I50-y I49-y) (= I50-m I49-m) (> I50-d I49-d)))))
(assert (not (or (distinct I49-y (ite B7-F I7-y 0)) (distinct I49-m (str.to_int (ite B8-F S8-S ""))))))
(assert (not (< I49-y 2025)))
(assert (not (or (and (distinct I53 0) (= I54 0)) (and (distinct I58 0) (= I59 0)))))
(assert (not (or (> (* I54 100) (+ (* I53 15) 100)) (> (* I59 100) (+ (* I58 15) 100)))))
(assert (not (and B54-F B55-F (> (ite (>= (- I55 (div (* I54 55) 10)) 0) (- I55 (div (* I54 55) 10)) (- (- I55 (div (* I54 55) 10)))) 100))))
(assert (not (and (or B52-F B53-F B54-F B55-F) (not (and B52-F B53-F B54-F B55-F)))))
(assert (not (and B59-F B60-F (> (ite (>= (- I60 (div (* I59 55) 10)) 0) (- I60 (div (* I59 55) 10)) (- (- I60 (div (* I59 55) 10)))) 100))))
(assert (not (and (or B57-F B58-F B59-F B60-F) (not (and B57-F B58-F B59-F B60-F)))))
(assert (not (or (> I48-e-y I49-y) (and (= I48-e-y I49-y) (> I48-e-m I49-m)) (and (= I48-e-y I49-y) (= I48-e-m I49-m) (> I48-e-d I49-d)))))
(assert (not (or (< I48-s-y (- I48-e-y 1)) (and (= I48-s-y (- I48-e-y 1)) (< I48-s-m I48-e-m)) (and (= I48-s-y (- I48-e-y 1)) (= I48-s-m I48-e-m) (< I48-s-d (+ I48-e-d 1))))))
(assert (not B94-F))
(assert (and B7-F B8-F))
(assert (not (and B7-F B8-F (or (< 2026 I7-y) (and (= 2026 I7-y) (<= 6 (str.to_int S8-S)))))))
(assert (not (and B7-F B8-F (or (< 2027 I7-y) (and (= 2027 I7-y) (<= 6 (str.to_int S8-S)))))))
(assert (not (and B120-F (not (and B122-F B123-F)))))
(assert (not (and (not B120-F) (or B122-F B123-F))))
(assert (not (and B3-F (= S2-S "0"))))
(assert (not (and B3-F (= S3-S S1-S))))
(assert (not (and (or B100-F B101-F B98-F B99-F B102-F B103-F B104-F B105-F B106-F B113-F B107-F B110-F B111-F B108-F B109-F B112-F) (not B114-F))))
(assert (not (and B114-F (or B100-F B101-F B98-F B99-F B102-F B103-F B104-F B105-F B106-F B113-F B107-F B110-F B111-F B108-F B109-F B112-F) (distinct I115 (+ I101 I98 I99 I102 I103 I104 I105 I106 I113 I110 I111 I108 I109 I112 87392692246189)))))
(assert (not (and B114-F (not B100-F) (not B101-F) (not B98-F) (not B99-F) (not B102-F) (not B103-F) (not B104-F) (not B105-F) (not B106-F) (not B113-F) (not B107-F) (not B110-F) (not B111-F) (not B108-F) (not B109-F) (not B112-F))))
(assert (not (and B114-F (distinct I115 (* I92 100)))))
(set-info :major-phase |control constraints|)
(push 1)
(assert B123-F)
(set-info :status sat)
(check-sat)
(push 1)
(assert B39-F)
(set-info :status sat)
(check-sat)
(push 1)
(assert B17-F)
(set-info :status sat)
(check-sat)
(push 1)
(assert B26-F)
(set-info :status sat)
(check-sat)
(push 1)
(assert B53-F)
(set-info :status sat)
(check-sat)
(push 1)
(assert B31-F)
(set-info :status sat)
(check-sat)
(push 1)
(assert B18-F)
(set-info :status sat)
(check-sat)
(push 1)
(assert B42-F)
(set-info :status sat)
(check-sat)
(push 1)
(assert B85-F)
(set-info :status sat)
(check-sat)
(push 1)
(assert B41-F)
(set-info :status sat)
(check-sat)
(push 1)
(assert B84-F)
(set-info :status sat)
(check-sat)
(push 1)
(assert B80-F)
(set-info :status sat)
(check-sat)
(push 1)
(assert B101-F)
(set-info :status sat)
(check-sat)
(push 1)
(assert B23-F)
(set-info :status sat)
(check-sat)
(push 1)
(assert B58-F)
(set-info :status sat)
(check-sat)
(push 1)
(assert B72-F)
(set-info :status sat)
(check-sat)
(push 1)
(assert B102-F)
(set-info :status sat)
(check-sat)
(push 1)
(assert B11-F)
(set-info :status sat)
(check-sat)
(push 1)
(assert B103-F)
(set-info :status sat)
(check-sat)
(push 1)
(assert B6-F)
(set-info :status sat)
(check-sat)
(push 1)
(assert B30-F)
(set-info :status sat)
(check-sat)
(push 1)
(assert B125-F)
(set-info :status sat)
(check-sat)
(push 1)
(assert B54-F)
(set-info :status sat)
(check-sat)
(push 1)
(assert B81-F)
(set-info :status sat)
(check-sat)
(push 1)
(assert B4-F)
(set-info :status sat)
(check-sat)
(push 1)
(assert B55-F)
(set-info :status sat)
(check-sat)
(push 1)
(assert B82-F)
(set-info :status sat)
(check-sat)
(push 1)
(assert B57-F)
(set-info :status sat)
(check-sat)
(push 1)
(assert B32-F)
(set-info :status sat)
(check-sat)
(push 1)
(assert B108-F)
(set-info :status sat)
(check-sat)
(push 1)
(assert B109-F)
(set-info :status sat)
(check-sat)
(push 1)
(assert B34-F)
(set-info :status sat)
(check-sat)
(push 1)
(assert B98-F)
(set-info :status sat)
(check-sat)
(push 1)
(assert B111-F)
(set-info :status sat)
(check-sat)
(push 1)
(assert B99-F)
(set-info :status sat)
(check-sat)
(push 1)
(assert B37-F)
(set-info :status sat)
(check-sat)
(push 1)
(assert B110-F)
(set-info :status sat)
(check-sat)
(push 1)
(assert B87-F)
(set-info :status sat)
(check-sat)
(push 1)
(assert B86-F)
(set-info :status sat)
(check-sat)
(push 1)
(assert B44-F)
(set-info :status sat)
(check-sat)
(push 1)
(assert B25-F)
(set-info :status sat)
(check-sat)
(push 1)
(assert B61-F)
(set-info :status sat)
(check-sat)
(push 1)
(assert B15-F)
(set-info :status sat)
(check-sat)
(push 1)
(assert B63-F)
(set-info :status sat)
(check-sat)
(push 1)
(assert B124-F)
(set-info :status sat)
(check-sat)
(push 1)
(assert B122-F)
(set-info :status sat)
(check-sat)
(push 1)
(assert B8-F)
(set-info :status sat)
(check-sat)
(push 1)
(assert B27-F)
(set-info :status sat)
(check-sat)
(push 1)
(assert B120-F)
(set-info :status sat)
(check-sat)
(push 1)
(assert B118-F)
(set-info :status sat)
(check-sat)
(push 1)
(assert B35-F)
(set-info :status sat)
(check-sat)
(push 1)
(assert B69-F)
(set-info :status sat)
(check-sat)
(push 1)
(assert B59-F)
(set-info :status sat)
(check-sat)
(push 1)
(assert B20-F)
(set-info :status sat)
(check-sat)
(push 1)
(assert B112-F)
(set-info :status sat)
(check-sat)
(push 1)
(assert B77-F)
(set-info :status sat)
(check-sat)
(push 1)
(assert B64-F)
(set-info :status sat)
(check-sat)
(push 1)
(assert B76-F)
(set-info :status sat)
(check-sat)
(push 1)
(assert B74-F)
(set-info :status sat)
(check-sat)
(push 1)
(assert B106-F)
(set-info :status sat)
(check-sat)
(push 1)
(assert B113-F)
(set-info :status sat)
(check-sat)
(push 1)
(assert B126-F)
(set-info :status sat)
(check-sat)
(push 1)
(assert B52-F)
(set-info :status sat)
(check-sat)
(push 1)
(assert B5-F)
(set-info :status sat)
(check-sat)
(push 1)
(assert B62-F)
(set-info :status sat)
(check-sat)
(push 1)
(assert B7-F)
(set-info :status sat)
(check-sat)
(push 1)
(assert B12-F)
(set-info :status sat)
(check-sat)
(push 1)
(assert B66-F)
(set-info :status sat)
(check-sat)
(push 1)
(assert B94-F)
(set-info :status unsat)
(check-sat)
(pop 1)
(push 1)
(assert B3-F)
(set-info :status sat)
(check-sat)
(push 1)
(assert B9-F)
(set-info :status sat)
(check-sat)
(push 1)
(assert B13-F)
(set-info :status sat)
(check-sat)
(push 1)
(assert B79-F)
(set-info :status sat)
(check-sat)
(push 1)
(assert B117-F)
(set-info :status sat)
(check-sat)
(push 1)
(assert B71-F)
(set-info :status sat)
(check-sat)
(push 1)
(assert B91-F)
(set-info :status sat)
(check-sat)
(push 1)
(assert B96-F)
(set-info :status unsat)
(check-sat)
(pop 1)
(push 1)
(assert B90-F)
(set-info :status sat)
(check-sat)
(push 1)
(assert B40-F)
(set-info :status sat)
(check-sat)
(push 1)
(assert B100-F)
(set-info :status sat)
(check-sat)
(push 1)
(assert B21-F)
(set-info :status sat)
(check-sat)
(push 1)
(assert B36-F)
(set-info :status sat)
(check-sat)
(push 1)
(assert B67-F)
(set-info :status sat)
(check-sat)
(push 1)
(assert B104-F)
(set-info :status sat)
(check-sat)
(push 1)
(assert B60-F)
(set-info :status sat)
(check-sat)
(push 1)
(assert B107-F)
(set-info :status sat)
(check-sat)
(push 1)
(assert B75-F)
(set-info :status sat)
(check-sat)
(push 1)
(assert B45-F)
(set-info :status sat)
(check-sat)
(push 1)
(assert B89-F)
(set-info :status sat)
(check-sat)
(push 1)
(assert B97-F)
(set-info :status unsat)
(check-sat)
(pop 1)
(push 1)
(assert B28-F)
(set-info :status sat)
(check-sat)
(push 1)
(assert B22-F)
(set-info :status sat)
(check-sat)
(push 1)
(assert B16-F)
(set-info :status sat)
(check-sat)
(push 1)
(assert B114-F)
(set-info :status sat)
(check-sat)
(push 1)
(assert B105-F)
(set-info :status sat)
(check-sat)
(push 1)
(assert B68-F)
(set-info :status sat)
(check-sat)
(push 1)
(assert B47-F)
(set-info :status sat)
(check-sat)
(push 1)
(assert B46-F)
(set-info :status sat)
(check-sat)
(exit)

